p cnf 150 180
21 60 -23 0
117 111 93 0
89 49 -61 0
-75 149 109 0
101 -35 -15 0
-48 15 -126 0
51 -31 -63 0
75 50 -7 0
128 -63 -115 0
-57 147 -96 0
74 -68 -60 0
36 141 -89 0
63 88 -117 0
-28 15 -73 0
-75 119 -61 0
-24 10 130 0
-52 70 63 0
-24 -56 34 0
136 93 -45 0
-135 89 -55 0
58 116 -133 0
-4 85 -150 0
9 129 -30 0
-128 107 124 0
-5 -67 -112 0
-130 116 -142 0
-29 -27 1 0
-95 112 -82 0
9 48 46 0
-66 -141 -142 0
-2 80 -116 0
-20 -138 -85 0
70 121 -114 0
100 134 58 0
11 51 120 0
45 -41 80 0
-94 116 -122 0
-54 74 -51 0
-64 -20 -130 0
-89 2 -39 0
150 -84 108 0
-127 -13 57 0
66 118 40 0
-142 65 -45 0
132 79 -141 0
91 92 6 0
68 -55 -135 0
114 46 121 0
-107 -44 -95 0
94 -20 15 0
102 71 -42 0
90 -105 55 0
-115 58 36 0
150 -76 69 0
-77 -37 -55 0
136 116 96 0
-109 -118 129 0
19 -111 32 0
30 -50 118 0
76 -110 40 0
-77 117 -95 0
149 77 90 0
-104 -115 -25 0
-15 -9 96 0
-105 -27 -46 0
-121 150 -90 0
116 -33 -68 0
110 53 -118 0
109 -11 -132 0
124 -139 -101 0
-131 35 32 0
121 -13 21 0
-124 72 130 0
-44 -11 111 0
1 -66 -144 0
9 108 -120 0
-29 8 -50 0
-48 77 19 0
-124 91 35 0
86 -26 44 0
139 107 -39 0
-122 8 94 0
-65 62 68 0
-127 -126 44 0
59 -83 111 0
73 -65 25 0
120 13 27 0
-142 127 91 0
-10 109 91 0
146 141 -31 0
-149 6 100 0
-1 -116 -70 0
-118 78 -94 0
-23 80 -54 0
-6 28 -105 0
-33 -114 -81 0
100 -129 98 0
-94 47 -41 0
-124 -138 129 0
134 -52 -65 0
88 -67 83 0
24 -12 75 0
65 134 133 0
-143 -105 -76 0
-55 45 -97 0
94 40 3 0
115 -76 92 0
-35 -90 101 0
-106 -100 104 0
29 79 -117 0
70 32 -136 0
-29 31 -46 0
70 -148 -85 0
-64 -104 -38 0
38 71 112 0
117 140 39 0
-53 -74 -14 0
-74 -73 -23 0
41 -142 -135 0
25 54 -109 0
75 -100 96 0
25 30 -141 0
-88 -90 67 0
-133 -148 8 0
33 -25 26 0
-68 119 125 0
-71 -6 66 0
-95 18 -84 0
-41 -98 150 0
129 24 -43 0
106 -140 39 0
100 -16 99 0
-28 92 -69 0
86 125 -61 0
1 -74 -114 0
-89 -133 147 0
-83 17 3 0
-125 -149 132 0
-97 15 -41 0
3 35 104 0
120 102 121 0
-107 50 -13 0
84 -120 -98 0
68 -59 -126 0
-113 42 -10 0
85 131 148 0
107 136 -32 0
-92 -82 40 0
28 78 -52 0
-145 118 94 0
x 2 4 -6 13 -15 16 17 18 -19 20 26 -28 31 33 35 36 39 -40 -41 -45 -46 48 -49 -53 -54 56 -57 59 60 -62 63 -65 -68 73 74 -76 77 -79 81 86 -89 -91 94 95 99 -107 108 -110 111 -112 -115 117 -118 -119 120 123 125 126 -129 130 -132 -133 134 135 136 -137 138 139 140 -143 146 -149 -150 0
x 3 -5 7 8 9 10 11 14 -15 16 -18 20 21 -22 27 31 -32 -36 -39 -40 -41 42 44 -45 -46 -48 50 -52 -53 54 55 -57 -58 -61 66 -68 -69 70 -73 74 -75 -76 77 78 79 -81 82 -85 -86 88 -93 -94 -96 -97 -98 -99 100 101 102 103 104 -106 -107 110 111 -112 114 -116 -118 -119 120 -124 -126 -130 132 -135 137 -139 141 -143 -145 -148 149 0
x 1 5 -6 7 10 -11 13 -14 15 -16 20 -21 -22 -24 25 27 -28 31 32 34 36 37 -38 39 -41 -43 -44 -45 47 -49 50 55 -56 57 -58 -65 66 68 70 71 72 -73 75 76 77 -78 80 81 85 86 -87 89 92 -93 97 99 -100 -101 102 -105 -108 -109 110 113 116 -120 -123 -124 -127 129 -132 134 136 -137 -139 -141 -144 146 -148 150 0
x 1 -2 -3 -4 -5 -6 7 -9 -10 12 -15 -19 20 23 -24 25 -27 30 32 35 -36 -39 40 -41 -42 -44 45 46 -50 51 -54 -55 -56 57 58 -59 -60 61 -62 -65 -69 -71 73 75 -76 79 83 85 -86 -89 94 95 97 -100 -103 105 108 109 -111 112 -116 117 120 -121 122 124 -125 130 132 134 135 137 -139 -140 141 142 -146 147 148 -150 0
x -4 -6 9 12 -15 -16 17 20 -22 -25 -28 -30 -34 35 38 39 43 -45 48 49 50 51 -52 55 56 60 64 66 67 -69 70 -72 -73 -74 -77 -78 79 -83 84 -88 90 92 94 -95 97 -100 101 -102 -103 104 -106 -108 -112 -115 117 -120 122 125 126 -128 129 -132 133 134 135 -136 -137 138 -140 -141 -143 -144 -147 -149 0
x 1 -3 -7 -11 12 13 15 -16 19 21 25 -28 -29 -30 31 -32 34 -35 36 -38 39 40 41 42 43 45 47 -49 52 54 -57 58 -60 61 63 -65 66 -67 68 69 72 73 75 -80 -81 82 -83 84 85 -86 88 89 -90 91 94 -99 -101 -102 103 -104 107 109 -110 111 114 115 -116 -117 -119 122 -123 -124 125 127 129 131 -135 -140 -142 145 150 0
x -2 6 -7 -8 9 11 -14 16 17 -19 -20 -22 -23 -25 -26 27 30 -31 -37 38 -41 -42 44 46 47 48 50 -55 -57 59 -60 -61 -62 63 65 67 70 73 76 -80 81 86 87 91 97 -98 -101 -102 -105 -107 108 -112 -113 -114 -116 117 -122 -124 129 -130 -131 133 -135 -137 -138 141 143 -144 -149 0
x 3 -4 -6 14 -21 -25 27 31 -34 37 -39 43 -44 46 47 48 52 -53 -58 60 62 63 -64 -67 -68 71 74 -75 81 -83 -85 -88 93 -95 -96 97 98 -99 102 103 104 -107 -108 109 111 112 -113 115 -120 -121 -124 125 -126 131 133 -137 143 -147 0
x -1 7 8 9 10 13 14 16 17 19 22 23 -25 -27 28 -29 31 -32 -33 -34 -35 -36 43 44 -46 47 -48 -52 -53 56 -58 -60 62 -65 66 -67 -69 70 -71 72 -74 78 -79 -80 81 -84 -86 -87 -90 -92 93 -95 97 -100 -101 -102 103 -104 -105 106 107 112 113 -116 119 -123 124 -126 128 129 132 -134 -135 140 -141 142 143 146 -149 0
x -1 -4 10 12 15 17 -18 -19 -20 24 -25 26 -29 -31 -35 39 -41 43 -45 -47 48 -49 -50 -52 -54 -55 -56 -58 -60 61 62 -64 68 -69 -72 -74 76 -79 82 -84 86 -96 98 -103 -104 -105 -107 -108 112 113 116 118 120 123 124 -126 127 -129 132 -133 135 137 140 142 145 146 -148 -149 150 0
x -1 -5 -6 -7 -10 -11 -17 -18 21 24 -25 26 -27 30 31 -32 33 38 -41 -44 46 47 -50 51 55 -57 -59 -61 63 65 -66 67 -69 71 72 74 -75 -76 78 -79 82 -83 -84 86 -88 -93 -94 -96 -97 98 -99 -101 102 104 -105 106 -107 -109 -110 -113 -116 -118 -119 121 -131 -132 -134 -135 -137 -139 142 144 147 149 -150 0
x -2 3 6 8 -15 -16 17 -21 -23 24 25 -26 -29 -31 33 36 37 -38 -39 41 42 -44 45 46 47 -48 50 52 -54 56 57 -58 60 -64 -65 -67 -71 73 -76 -77 78 80 -81 84 88 89 -94 97 99 101 102 103 105 -106 107 110 111 -117 118 -119 -123 -126 -127 -132 135 136 -140 142 143 -144 -147 -149 -150 0
x -1 2 5 -6 8 -11 13 -16 18 19 -20 22 -25 26 27 31 -32 -35 36 37 -39 40 -43 -44 45 -46 -49 51 52 -54 -55 56 57 60 61 -62 -63 68 69 -70 72 -73 74 -75 76 78 -79 80 -82 83 -85 -90 -91 -94 -96 -99 -101 -104 -105 106 -107 -109 112 -113 -114 -117 -118 119 -120 124 -126 128 -131 132 -133 136 139 142 -143 -145 -146 -147 149 -150 0
x 1 -7 -10 16 -17 18 20 -22 24 25 26 27 -28 30 31 32 -33 -35 37 40 41 -42 -45 -49 50 51 52 53 -54 55 59 60 63 -66 67 68 -69 -72 -74 -75 81 84 -85 -87 -90 -91 95 -98 99 100 -101 -102 108 -113 -114 -115 -117 118 120 121 -122 -123 -125 128 130 -131 133 142 143 145 147 0
x 2 4 9 11 12 14 -15 16 -18 -21 -23 24 -26 -36 -37 40 -42 43 48 49 51 52 -55 -56 -57 59 -61 -62 -63 64 -65 67 69 70 -71 73 -77 -79 81 82 -83 84 -87 88 -90 -92 93 97 98 -100 -101 -103 104 105 -108 -109 -110 111 -113 114 -115 116 -121 123 -128 -129 -130 -131 134 -135 136 138 139 -141 -142 -145 -146 148 -150 0
x 3 -4 6 -7 9 10 11 -14 21 -23 24 26 27 32 33 -36 -37 -38 -39 40 42 -44 45 -50 -52 53 -54 -55 -56 57 -58 -59 60 63 -64 -66 67 -68 72 -74 76 -77 78 79 80 -84 -86 87 88 93 -94 95 -97 -98 101 103 -104 105 -106 109 110 112 -113 -117 118 119 -120 121 -122 123 -127 -130 -131 133 -136 -137 138 139 -143 -145 -146 147 -149 -150 0
x -2 3 4 -5 6 -9 13 -17 18 -19 -22 23 32 -34 -38 39 -41 -42 44 46 -47 -48 -56 -57 58 59 -62 66 -67 -68 -73 75 -77 78 -80 -81 -83 84 -85 86 -90 -92 -94 -97 98 -99 101 -102 -103 104 111 112 -114 118 119 -121 -125 126 127 130 -131 132 -133 134 135 -137 -139 140 144 145 -146 148 150 0
x -1 -2 -5 -7 -8 -10 12 -13 14 15 -17 -18 22 23 27 31 -32 -36 -37 -38 -39 43 -44 -46 -49 -52 57 -59 61 -62 64 -65 -69 -70 -74 75 -77 78 -79 80 -81 -83 86 -88 91 92 98 101 -102 105 -106 -108 -109 -111 -113 -114 119 120 131 -134 135 138 139 141 142 143 144 150 0
x -2 -4 -5 -6 7 8 9 10 -13 -15 -17 -19 -21 23 26 -28 29 -31 39 -41 43 44 50 -51 53 55 56 -58 62 -63 -64 -67 68 69 -70 -75 -76 -77 78 -79 81 -84 -87 -88 90 -95 96 97 98 99 103 108 109 -110 112 114 115 116 117 -118 -119 120 -121 -122 -123 -125 127 -128 130 -131 -133 -134 137 141 144 147 -148 -149 150 0
x 1 2 -3 6 -9 -11 -13 -16 17 -20 21 -22 23 41 42 -45 -46 47 48 49 -52 -54 -55 57 -59 -61 63 65 66 67 -68 -69 71 72 73 74 -76 -77 -78 -83 -86 -87 88 -89 -90 -91 92 97 98 101 102 -103 -105 108 110 111 112 -113 -115 117 -118 119 -120 -121 122 -123 -124 125 -126 -127 128 130 132 -134 -136 -137 -138 140 141 143 144 -147 149 0
x 2 3 4 -7 -10 11 14 15 -16 -17 20 21 -25 -28 33 35 36 -38 -39 42 43 45 49 50 51 -54 58 59 60 62 63 65 -66 68 -69 70 71 72 74 75 -76 78 80 81 82 85 -86 -90 -93 95 96 -99 100 104 107 -108 110 111 -112 -115 -116 -118 119 120 -125 128 129 -130 -131 133 135 136 -137 138 139 -141 -143 144 -146 -147 148 -149 0
x 1 -3 -6 7 8 9 -10 11 -12 -13 14 -15 16 -17 19 -20 25 -28 -29 -30 -36 -39 -41 -42 -45 47 49 -53 54 55 56 57 -58 -62 63 66 67 69 -71 -74 75 79 80 -83 -84 85 -89 -90 -92 95 98 101 102 103 105 106 -108 -109 110 -111 -112 117 -119 -120 -124 -125 -127 128 -130 -131 139 -140 -145 146 149 0
x 3 -5 6 -9 11 12 -13 14 15 -18 19 -22 -28 30 -31 32 -34 -37 39 40 -41 -42 -46 -50 -51 53 56 -58 61 -62 64 -75 79 81 82 83 -84 85 -91 93 -94 97 98 100 102 -105 109 -112 113 -115 -116 -117 118 -122 -123 124 125 126 -127 -129 130 -134 136 140 144 146 147 148 150 0
x 2 -3 -5 8 10 11 12 -14 15 -16 -17 18 -19 20 -22 24 31 -35 -36 38 -40 42 45 46 -47 50 52 54 -57 58 60 -62 63 -64 -68 -73 -75 80 82 -84 88 90 92 93 -95 97 -100 101 104 106 -109 -113 115 116 121 122 -126 128 130 -131 133 -138 147 149 0
x -1 -4 5 6 7 -8 -9 10 -11 -14 16 18 19 -22 24 -25 -28 -29 -34 35 37 38 -41 42 -44 -46 -49 -50 51 60 61 -63 -66 67 68 -71 -72 -73 -77 -79 80 -81 86 88 -92 -93 -94 -96 -97 102 -105 -108 -109 113 114 -115 117 -118 121 124 -125 -126 -127 -128 129 134 -136 -139 -140 -142 143 144 -148 149 0
x 1 2 5 8 -9 13 15 21 22 -25 -26 28 -29 31 -33 34 -36 -38 -39 -40 41 -44 -45 48 51 -53 54 57 59 -60 -61 -63 -65 -66 -67 78 -79 80 -81 -84 -86 87 -88 89 -91 -95 96 -97 100 105 -106 -107 110 -111 112 114 116 117 119 -121 124 -126 128 131 -136 137 140 -142 -143 149 0
x 3 4 10 -13 14 15 -16 17 20 -21 23 27 28 29 -31 33 35 -36 41 43 44 45 47 -49 51 -53 -55 -56 -57 -60 -61 -62 -66 67 69 -72 -73 75 -79 -81 -83 -85 86 -87 88 91 93 -95 -96 97 -102 -105 106 108 -109 111 -113 -114 116 -117 118 -126 128 -131 134 -135 136 -137 -138 -140 141 142 143 145 148 -149 0
x 2 -7 10 11 -16 -18 19 -22 -23 24 -28 -29 32 37 -38 39 40 44 -45 46 -48 51 54 55 -56 57 -59 63 -64 65 66 -68 69 71 -74 75 -77 78 80 -82 84 -86 87 90 92 -93 -95 -96 97 98 -100 -101 -107 110 -111 112 -113 -115 116 -119 -120 122 -124 -127 -128 -129 131 136 -139 -140 141 142 144 -145 146 -147 -148 149 150 0
x -2 -4 5 -8 -12 13 15 -16 -17 18 19 -22 -23 -24 -26 -28 29 -31 -32 -36 -37 -38 42 -43 46 48 50 -53 -55 -56 -57 58 59 -60 61 62 -63 64 65 68 -69 -70 71 73 75 -76 79 -81 85 89 91 -92 94 -95 97 -101 109 113 -117 -119 123 130 131 -134 -135 136 137 140 148 -149 -150 0
x 2 3 -5 -13 14 -16 -19 -21 -24 27 -32 -35 37 42 44 -46 47 -48 49 50 -55 56 57 59 60 -62 -66 -69 -70 71 -73 -75 76 -81 -82 -86 -89 -90 92 95 97 -98 99 -100 -102 103 -107 111 -112 113 114 -115 -116 119 -120 124 127 128 130 133 135 136 138 -139 141 -142 147 -148 149 -150 0
